DIMENSION :21
NODE_COORD_SECTION
1 12.914066319691415 -73.00037601945321
2 34.86876806223853 49.052620980689056
3 -90.75369985083996 84.88235225666924
4 84.52470995231093 -38.6222901976911
5 56.02788774204973 -80.13520035253019
6 12.036484280160309 -67.3920170305156
7 -50.76514275387076 93.50111127450677
8 -51.139177803016935 -24.48752971652452
9 95.24867335778063 -40.055338271191054
10 24.856221434688436 99.36760087761076
11 -42.0548628413935 45.34327521763339
12 -55.93281358896307 62.573758572246675
13 69.24856536909056 -37.71669028815072
14 -34.26283965876928 59.53025832825435
15 -61.5154264112324 -77.60091782534029
16 -4.097191786216541 -93.06394760066262
17 -68.78379762471917 -77.82186580113478
18 -54.100948356467036 -52.777617289870385
19 -95.15018866304807 -79.84312090899283
20 -53.669222419417274 -29.3871353850992
21 86.14865389836561 98.11536374672221
EOF
